(set-logic QF_LRA)
(declare-fun X0 () Real )
(declare-fun Y0 () Real )
(declare-fun X1 () Real )
(declare-fun Y1 () Real )
(declare-fun X2 () Real )
(declare-fun Y2 () Real )
(declare-fun X3 () Real )
(declare-fun Y3 () Real )
(declare-fun X4 () Real )
(declare-fun Y4 () Real )
(declare-fun X5 () Real )
(declare-fun Y5 () Real )
(declare-fun X6 () Real )
(declare-fun Y6 () Real )
(declare-fun X7 () Real )
(declare-fun Y7 () Real )
(declare-fun X8 () Real )
(declare-fun Y8 () Real )
(declare-fun Z () Real )
(assert ( and  
( or ( <= ( + X0 62 ) X1 )  ( <= ( + X1 76 ) X0 )  ( <= ( + Y0 41 ) Y1 )  ( <= ( + Y1 43 ) Y0 )  )
( or ( <= ( + X0 62 ) X2 )  ( <= ( + X2 94 ) X0 )  ( <= ( + Y0 41 ) Y2 )  ( <= ( + Y2 81 ) Y0 )  )
( or ( <= ( + X0 62 ) X3 )  ( <= ( + X3 91 ) X0 )  ( <= ( + Y0 41 ) Y3 )  ( <= ( + Y3 15 ) Y0 )  )
( or ( <= ( + X0 62 ) X4 )  ( <= ( + X4 90 ) X0 )  ( <= ( + Y0 41 ) Y4 )  ( <= ( + Y4 79 ) Y0 )  )
( or ( <= ( + X0 62 ) X5 )  ( <= ( + X5 65 ) X0 )  ( <= ( + Y0 41 ) Y5 )  ( <= ( + Y5 63 ) Y0 )  )
( or ( <= ( + X0 62 ) X6 )  ( <= ( + X6 25 ) X0 )  ( <= ( + Y0 41 ) Y6 )  ( <= ( + Y6 56 ) Y0 )  )
( or ( <= ( + X0 62 ) X7 )  ( <= ( + X7 52 ) X0 )  ( <= ( + Y0 41 ) Y7 )  ( <= ( + Y7 90 ) Y0 )  )
( or ( <= ( + X0 62 ) X8 )  ( <= ( + X8 12 ) X0 )  ( <= ( + Y0 41 ) Y8 )  ( <= ( + Y8 41 ) Y0 )  )
( or ( <= ( + X1 76 ) X2 )  ( <= ( + X2 94 ) X1 )  ( <= ( + Y1 43 ) Y2 )  ( <= ( + Y2 81 ) Y1 )  )
( or ( <= ( + X1 76 ) X3 )  ( <= ( + X3 91 ) X1 )  ( <= ( + Y1 43 ) Y3 )  ( <= ( + Y3 15 ) Y1 )  )
( or ( <= ( + X1 76 ) X4 )  ( <= ( + X4 90 ) X1 )  ( <= ( + Y1 43 ) Y4 )  ( <= ( + Y4 79 ) Y1 )  )
( or ( <= ( + X1 76 ) X5 )  ( <= ( + X5 65 ) X1 )  ( <= ( + Y1 43 ) Y5 )  ( <= ( + Y5 63 ) Y1 )  )
( or ( <= ( + X1 76 ) X6 )  ( <= ( + X6 25 ) X1 )  ( <= ( + Y1 43 ) Y6 )  ( <= ( + Y6 56 ) Y1 )  )
( or ( <= ( + X1 76 ) X7 )  ( <= ( + X7 52 ) X1 )  ( <= ( + Y1 43 ) Y7 )  ( <= ( + Y7 90 ) Y1 )  )
( or ( <= ( + X1 76 ) X8 )  ( <= ( + X8 12 ) X1 )  ( <= ( + Y1 43 ) Y8 )  ( <= ( + Y8 41 ) Y1 )  )
( or ( <= ( + X2 94 ) X3 )  ( <= ( + X3 91 ) X2 )  ( <= ( + Y2 81 ) Y3 )  ( <= ( + Y3 15 ) Y2 )  )
( or ( <= ( + X2 94 ) X4 )  ( <= ( + X4 90 ) X2 )  ( <= ( + Y2 81 ) Y4 )  ( <= ( + Y4 79 ) Y2 )  )
( or ( <= ( + X2 94 ) X5 )  ( <= ( + X5 65 ) X2 )  ( <= ( + Y2 81 ) Y5 )  ( <= ( + Y5 63 ) Y2 )  )
( or ( <= ( + X2 94 ) X6 )  ( <= ( + X6 25 ) X2 )  ( <= ( + Y2 81 ) Y6 )  ( <= ( + Y6 56 ) Y2 )  )
( or ( <= ( + X2 94 ) X7 )  ( <= ( + X7 52 ) X2 )  ( <= ( + Y2 81 ) Y7 )  ( <= ( + Y7 90 ) Y2 )  )
( or ( <= ( + X2 94 ) X8 )  ( <= ( + X8 12 ) X2 )  ( <= ( + Y2 81 ) Y8 )  ( <= ( + Y8 41 ) Y2 )  )
( or ( <= ( + X3 91 ) X4 )  ( <= ( + X4 90 ) X3 )  ( <= ( + Y3 15 ) Y4 )  ( <= ( + Y4 79 ) Y3 )  )
( or ( <= ( + X3 91 ) X5 )  ( <= ( + X5 65 ) X3 )  ( <= ( + Y3 15 ) Y5 )  ( <= ( + Y5 63 ) Y3 )  )
( or ( <= ( + X3 91 ) X6 )  ( <= ( + X6 25 ) X3 )  ( <= ( + Y3 15 ) Y6 )  ( <= ( + Y6 56 ) Y3 )  )
( or ( <= ( + X3 91 ) X7 )  ( <= ( + X7 52 ) X3 )  ( <= ( + Y3 15 ) Y7 )  ( <= ( + Y7 90 ) Y3 )  )
( or ( <= ( + X3 91 ) X8 )  ( <= ( + X8 12 ) X3 )  ( <= ( + Y3 15 ) Y8 )  ( <= ( + Y8 41 ) Y3 )  )
( or ( <= ( + X4 90 ) X5 )  ( <= ( + X5 65 ) X4 )  ( <= ( + Y4 79 ) Y5 )  ( <= ( + Y5 63 ) Y4 )  )
( or ( <= ( + X4 90 ) X6 )  ( <= ( + X6 25 ) X4 )  ( <= ( + Y4 79 ) Y6 )  ( <= ( + Y6 56 ) Y4 )  )
( or ( <= ( + X4 90 ) X7 )  ( <= ( + X7 52 ) X4 )  ( <= ( + Y4 79 ) Y7 )  ( <= ( + Y7 90 ) Y4 )  )
( or ( <= ( + X4 90 ) X8 )  ( <= ( + X8 12 ) X4 )  ( <= ( + Y4 79 ) Y8 )  ( <= ( + Y8 41 ) Y4 )  )
( or ( <= ( + X5 65 ) X6 )  ( <= ( + X6 25 ) X5 )  ( <= ( + Y5 63 ) Y6 )  ( <= ( + Y6 56 ) Y5 )  )
( or ( <= ( + X5 65 ) X7 )  ( <= ( + X7 52 ) X5 )  ( <= ( + Y5 63 ) Y7 )  ( <= ( + Y7 90 ) Y5 )  )
( or ( <= ( + X5 65 ) X8 )  ( <= ( + X8 12 ) X5 )  ( <= ( + Y5 63 ) Y8 )  ( <= ( + Y8 41 ) Y5 )  )
( or ( <= ( + X6 25 ) X7 )  ( <= ( + X7 52 ) X6 )  ( <= ( + Y6 56 ) Y7 )  ( <= ( + Y7 90 ) Y6 )  )
( or ( <= ( + X6 25 ) X8 )  ( <= ( + X8 12 ) X6 )  ( <= ( + Y6 56 ) Y8 )  ( <= ( + Y8 41 ) Y6 )  )
( or ( <= ( + X7 52 ) X8 )  ( <= ( + X8 12 ) X7 )  ( <= ( + Y7 90 ) Y8 )  ( <= ( + Y8 41 ) Y7 )  )
( >= X0 0)
( <= ( + X0 62) Z)
( >= Y0 0)
( <= ( + Y0 41 ) 100)
( >= X1 0)
( <= ( + X1 76) Z)
( >= Y1 0)
( <= ( + Y1 43 ) 100)
( >= X2 0)
( <= ( + X2 94) Z)
( >= Y2 0)
( <= ( + Y2 81 ) 100)
( >= X3 0)
( <= ( + X3 91) Z)
( >= Y3 0)
( <= ( + Y3 15 ) 100)
( >= X4 0)
( <= ( + X4 90) Z)
( >= Y4 0)
( <= ( + Y4 79 ) 100)
( >= X5 0)
( <= ( + X5 65) Z)
( >= Y5 0)
( <= ( + Y5 63 ) 100)
( >= X6 0)
( <= ( + X6 25) Z)
( >= Y6 0)
( <= ( + Y6 56 ) 100)
( >= X7 0)
( <= ( + X7 52) Z)
( >= Y7 0)
( <= ( + Y7 90 ) 100)
( >= X8 0)
( <= ( + X8 12) Z)
( >= Y8 0)
( <= ( + Y8 41 ) 100)
) )
(minimize Z)
(check-sat)
